(set-info :source |
 Generated by Alive 0.1
 More info in N. P. Lopes, D. Menendez, S. Nagarakatte, J. Regehr.
 Provably Correct Peephole Optimizations with Alive. In PLDI'15.
|)

(set-info :status unknown)
(declare-fun u_%Op0 () (_ BitVec 8))
(declare-fun C2 () (_ BitVec 21))
(declare-fun C1 () (_ BitVec 21))
(assert
 (let (($x97953 (and (distinct u_%Op0 (_ bv1 8)) true)))
 (let (($x432677 (bvsge ((_ zero_extend 11) (bvadd C1 C2)) (_ bv21 32))))
 (let (($x129903 (bvult C1 (_ bv21 21))))
 (and $x129903 $x432677 $x97953 false)))))
(check-sat)
